
Gurobi 11.0.3 (linux64) logging started Mon 18 Nov 2024 10:36:52 PM CST

Set parameter LogFile to value "/home/dlcole3/graph_abstraction/hierarchical_graphs/git_storage/CS1/HP_low_reserves/gurobi_logs/serial/logfile_ST18_1.log"

Gurobi 11.0.3 (linux64) logging started Mon 18 Nov 2024 10:37:49 PM CST

Set parameter LogFile to value "/home/dlcole3/graph_abstraction/hierarchical_graphs/git_storage/CS1/HP_low_reserves/gurobi_logs/serial/logfile_ST18_1.log"
Gurobi Optimizer version 11.0.3 build v11.0.3rc0 (linux64 - "Ubuntu 18.04.3 LTS")

CPU model: Intel(R) Xeon(R) CPU E5-2698 v4 @ 2.20GHz, instruction set [SSE2|AVX|AVX2]
Thread count: 40 physical cores, 80 logical processors, using up to 20 threads

Optimize a model with 29168 rows, 50688 columns and 136175 nonzeros
Model fingerprint: 0x3eba99b8
Variable types: 46944 continuous, 3744 integer (3744 binary)
Coefficient statistics:
  Matrix range     [6e-01, 2e+04]
  Objective range  [2e+00, 2e+04]
  Bounds range     [5e-02, 2e+05]
  RHS range        [2e-03, 7e+03]
Presolve removed 13712 rows and 38354 columns
Presolve time: 0.40s
Presolved: 15456 rows, 12334 columns, 65794 nonzeros
Variable types: 9282 continuous, 3052 integer (3052 binary)
Found heuristic solution: objective 192182.54164
Found heuristic solution: objective 187372.78276

Root relaxation: objective 6.577274e+04, 8326 iterations, 0.30 seconds (0.21 work units)

    Nodes    |    Current Node    |     Objective Bounds      |     Work
 Expl Unexpl |  Obj  Depth IntInf | Incumbent    BestBd   Gap | It/Node Time

     0     0 65772.7384    0    5 187372.783 65772.7384  64.9%     -    1s
H    0     0                    187372.78250 65772.7384  64.9%     -    1s
H    0     0                    85746.797680 65772.7384  23.3%     -    1s
H    0     0                    85746.797600 65775.3690  23.3%     -    1s
     0     0 65775.3690    0    5 85746.7976 65775.3690  23.3%     -    1s
H    0     0                    68755.633467 65775.3690  4.33%     -    1s
     0     0 65775.3690    0   19 68755.6335 65775.3690  4.33%     -    1s
     0     0 65775.5447    0   19 68755.6335 65775.5447  4.33%     -    2s
H    0     0                    68755.633453 65775.5447  4.33%     -    2s
     0     0 65775.5447    0    2 68755.6335 65775.5447  4.33%     -    2s
H    0     0                    68755.633008 65775.5447  4.33%     -    3s
     0     0 65775.5447    0    7 68755.6330 65775.5447  4.33%     -    3s
     0     0 65775.5447    0    9 68755.6330 65775.5447  4.33%     -    3s
     0     0 65797.0482    0    9 68755.6330 65797.0482  4.30%     -    3s
     0     0 65807.3063    0    9 68755.6330 65807.3063  4.29%     -    3s
     0     2 65807.3063    0    9 68755.6330 65807.3063  4.29%     -    3s
H   31    42                    66528.029939 65807.3063  1.08%   7.1    4s
H   32    42                    66391.826136 65807.3063  0.88%   6.9    4s
H   93    34                    66345.646611 65807.3063  0.81%   4.0    4s
H   93    34                    66343.546053 65807.3063  0.81%   4.0    4s
H   99    34                    66340.710995 65807.3063  0.80%   3.9    4s
H   99    34                    66339.107669 65807.3063  0.80%   3.9    4s
H  145    21                    66339.107590 65941.5660  0.60%   3.2    4s
H  155    21                    66311.463165 66052.4235  0.39%   3.2    4s
*  177    13              10    66307.285888 66052.4235  0.38%   3.0    4s
H  216    40                    66084.218314 66063.6393  0.03%   2.7    4s

Cutting planes:
  Gomory: 3

Explored 248 nodes (16179 simplex iterations) in 4.63 seconds (2.57 work units)
Thread count was 20 (of 80 available processors)

Solution count 10: 66084.2 66307.3 66311.5 ... 187373

Optimal solution found (tolerance 3.00e-03)
Best objective 6.608421831435e+04, best bound 6.606655868144e+04, gap 0.0267%

User-callback calls 2311, time in user-callback 0.00 sec
